

******************************************************************************
This program contains Ipopt, a library for large-scale nonlinear optimization.
 Ipopt is released as open source code under the Eclipse Public License (EPL).
         For more information visit http://projects.coin-or.org/Ipopt
******************************************************************************

This is Ipopt version 3.12.8, running with linear solver mumps.
NOTE: Other linear solvers might be more efficient (see Ipopt documentation).

Number of nonzeros in equality constraint Jacobian...:       82
Number of nonzeros in inequality constraint Jacobian.:        0
Number of nonzeros in Lagrangian Hessian.............:        0

Total number of variables............................:       20
                     variables with only lower bounds:        0
                variables with lower and upper bounds:       20
                     variables with only upper bounds:        0
Total number of equality constraints.................:       15
Total number of inequality constraints...............:        0
        inequality constraints with only lower bounds:        0
   inequality constraints with lower and upper bounds:        0
        inequality constraints with only upper bounds:        0

iter    objective    inf_pr   inf_du lg(mu)  ||d||  lg(rg) alpha_du alpha_pr  ls
   0 -5.2803532e+02 3.42e+02 4.17e+01  -1.0 0.00e+00    -  0.00e+00 0.00e+00   0
   1 -2.5868770e+02 1.20e+02 1.06e+02  -1.0 1.51e+00    -  6.95e-03 6.48e-01h  1
   2 -2.7944701e+02 1.18e+02 1.03e+02  -1.0 1.22e+01    -  4.82e-02 2.24e-02f  1
   3 -2.8898296e+02 1.11e+02 9.46e+01  -1.0 5.33e+00    -  9.19e-02 5.85e-02f  1
   4 -2.6945515e+02 9.55e+01 5.73e+01  -1.0 1.28e+00    -  5.86e-01 1.38e-01h  1
   5 -2.6419255e+02 9.25e+01 5.50e+01  -1.0 6.20e-01    -  3.33e-02 3.13e-02h  1
   6 -1.0685489e+02 1.36e+01 6.44e+00  -1.0 1.12e+00    -  1.00e+00 8.53e-01h  1
   7 -1.0522366e+02 1.28e+01 9.12e+00  -1.0 1.58e-01    -  1.00e+00 6.08e-02h  1
   8 -1.0396347e+02 1.20e+01 7.37e+00  -1.0 8.23e-02    -  5.66e-02 5.85e-02h  1
   9 -7.0492479e+01 1.45e-01 4.92e-02  -1.0 2.96e-01    -  1.00e+00 9.88e-01h  1
iter    objective    inf_pr   inf_du lg(mu)  ||d||  lg(rg) alpha_du alpha_pr  ls
  10 -7.0123606e+01 2.58e-02 5.17e+01  -1.0 4.74e-03    -  1.00e+00 8.21e-01h  1
  11 -7.0102566e+01 2.46e-02 3.33e+04  -1.0 8.12e-03    -  1.00e+00 4.64e-02h  1
  12 -7.0017488e+01 2.45e-02 1.31e+05  -1.0 2.27e-01    -  1.52e-02 5.10e-03h  1
  13 -6.9136178e+01 2.33e-02 4.09e+04  -1.0 3.55e-01    -  8.74e-01 4.95e-02f  5
  14 -6.2806672e+01 1.48e-02 4.10e+05  -1.0 3.28e-01    -  6.35e-02 3.65e-01h  1
  15 -6.2583990e+01 1.45e-02 4.01e+05  -1.0 2.20e-01    -  1.00e+00 2.07e-02f  6
  16 -5.5717886e+01 4.97e-03 1.40e+05  -1.0 2.10e-01    -  3.76e-01 6.57e-01h  1
  17 -5.5637081e+01 4.87e-03 3.42e+05  -1.0 7.58e-02    -  4.70e-01 2.12e-02h  1
  18 -5.5570356e+01 4.84e-03 5.07e+05  -1.0 1.19e-01    -  3.05e-02 5.80e-03f  5
  19 -4.6286860e+01 2.21e-03 2.34e+05  -1.0 1.77e-01    -  6.05e-02 5.44e-01h  1
iter    objective    inf_pr   inf_du lg(mu)  ||d||  lg(rg) alpha_du alpha_pr  ls
  20 -4.4809490e+01 1.72e-03 2.89e+05  -1.0 9.17e-02    -  9.65e-01 2.18e-01h  1
  21 -4.3756507e+01 1.46e-03 4.50e+05  -1.0 7.21e-02    -  2.43e-01 1.53e-01h  1
  22 -3.0330155e+01 1.11e-16 1.25e+06  -1.0 1.22e-01    -  7.70e-02 1.00e+00h  1
  23 -2.9653028e+01 1.11e-16 6.22e+03  -1.0 7.47e-03    -  5.89e-01 1.00e+00f  1
  24 -2.9687504e+01 2.22e-16 4.39e-10  -1.0 3.17e-04    -  1.00e+00 1.00e+00f  1
  25 -3.0724445e+01 2.22e-16 7.86e+02  -5.7 1.18e-02    -  9.40e-01 9.06e-01f  1
  26 -3.0755422e+01 4.44e-16 2.42e+03  -5.7 3.73e-04    -  1.00e+00 7.70e-01f  1
  27 -3.0763995e+01 2.22e-16 4.17e-10  -5.7 8.03e-05    -  1.00e+00 1.00e+00f  1

Number of Iterations....: 27

                                   (scaled)                 (unscaled)
Objective...............:  -2.3073572976012613e+01   -3.0763994848917619e+01
Dual infeasibility......:   4.1679316667560953e-10    5.5571032912859020e-10
Constraint violation....:   4.3960523643839107e-17    2.2204460492503131e-16
Complementarity.........:   3.4265899651917279e-06    4.5686724005901311e-06
Overall NLP error.......:   5.5777859001765517e-09    4.5686724005901311e-06


Number of objective function evaluations             = 41
Number of objective gradient evaluations             = 28
Number of equality constraint evaluations            = 41
Number of inequality constraint evaluations          = 0
Number of equality constraint Jacobian evaluations   = 28
Number of inequality constraint Jacobian evaluations = 0
Number of Lagrangian Hessian evaluations             = 27
Total CPU secs in IPOPT (w/o function evaluations)   =      0.008
Total CPU secs in NLP function evaluations           =      0.000

EXIT: Optimal Solution Found.
 
Ipopt 3.12.8: Optimal Solution Found
